NAME : CMT2X.684211.tour
COMMENT : Cost = 0_684211
COMMENT : Found by LKH [Keld Helsgaun] Thu Sep 14 21:13:24 2017
TYPE : TOUR
DIMENSION : 81
TOUR_SECTION
1
7
17
64
24
57
42
44
43
65
23
62
22
48
49
31
78
8
36
15
60
20
55
14
58
16
38
21
71
61
72
70
37
6
30
80
76
69
3
75
29
63
74
2
34
52
81
18
41
45
33
10
40
73
11
59
13
27
79
54
12
67
66
39
32
56
26
51
19
25
50
4
77
68
35
47
9
53
28
46
5
-1
EOF
